c nIsolatedPIs 48
c maxPI 208
p cnf 728 1561
c gate 209 -88 -192 0
-88 -209 0
-192 -209 0
88 192 209 0
c gate 210 -86 -190 0
-86 -210 0
-190 -210 0
86 190 210 0
c gate 211 -87 -191 0
-87 -211 0
-191 -211 0
87 191 211 0
c gate 212 -210 -211 0
-210 -212 0
-211 -212 0
210 211 212 0
c gate 213 -85 -189 0
-85 -213 0
-189 -213 0
85 189 213 0
c gate 214 212 -213 0
212 -214 0
-213 -214 0
-212 213 214 0
c gate 215 84 188 0
84 -215 0
188 -215 0
-84 -188 215 0
c gate 216 -84 -188 0
-84 -216 0
-188 -216 0
84 188 216 0
c gate 217 83 187 0
83 -217 0
187 -217 0
-83 -187 217 0
c gate 218 -216 217 0
-216 -218 0
217 -218 0
216 -217 218 0
c gate 219 -215 -218 0
-215 -219 0
-218 -219 0
215 218 219 0
c gate 220 82 186 0
82 -220 0
186 -220 0
-82 -186 220 0
c gate 221 81 185 0
81 -221 0
185 -221 0
-81 -185 221 0
c gate 222 -220 -221 0
-220 -222 0
-221 -222 0
220 221 222 0
c gate 223 -82 -186 0
-82 -223 0
-186 -223 0
82 186 223 0
c gate 224 -83 -187 0
-83 -224 0
-187 -224 0
83 187 224 0
c gate 225 -216 -224 0
-216 -225 0
-224 -225 0
216 224 225 0
c gate 226 -223 225 0
-223 -226 0
225 -226 0
223 -225 226 0
c gate 227 219 226 0
219 -227 0
226 -227 0
-219 -226 227 0
c gate 228 -222 227 0
-222 -228 0
227 -228 0
222 -227 228 0
c gate 229 219 -228 0
219 -229 0
-228 -229 0
-219 228 229 0
c gate 230 214 -229 0
214 -230 0
-229 -230 0
-214 229 230 0
c gate 231 86 190 0
86 -231 0
190 -231 0
-86 -190 231 0
c gate 232 85 189 0
85 -232 0
189 -232 0
-85 -189 232 0
c gate 233 -231 -232 0
-231 -233 0
-232 -233 0
231 232 233 0
c gate 234 212 -233 0
212 -234 0
-233 -234 0
-212 233 234 0
c gate 235 88 192 0
88 -235 0
192 -235 0
-88 -192 235 0
c gate 236 87 191 0
87 -236 0
191 -236 0
-87 -191 236 0
c gate 237 -235 -236 0
-235 -237 0
-236 -237 0
235 236 237 0
c gate 238 -234 237 0
-234 -238 0
237 -238 0
234 -237 238 0
c gate 239 -230 238 0
-230 -239 0
238 -239 0
230 -238 239 0
c gate 240 -209 -239 0
-209 -240 0
-239 -240 0
209 239 240 0
c gate 241 -81 -185 0
-81 -241 0
-185 -241 0
81 185 241 0
c gate 242 -209 -241 0
-209 -242 0
-241 -242 0
209 241 242 0
c gate 243 222 242 0
222 -243 0
242 -243 0
-222 -242 243 0
c gate 244 214 243 0
214 -244 0
243 -244 0
-214 -243 244 0
c gate 245 227 244 0
227 -245 0
244 -245 0
-227 -244 245 0
c gate 246 238 245 0
238 -246 0
245 -246 0
-238 -245 246 0
c gate 247 60 164 0
60 -247 0
164 -247 0
-60 -164 247 0
c gate 248 -60 -164 0
-60 -248 0
-164 -248 0
60 164 248 0
c gate 249 59 163 0
59 -249 0
163 -249 0
-59 -163 249 0
c gate 250 -248 249 0
-248 -250 0
249 -250 0
248 -249 250 0
c gate 251 -247 -250 0
-247 -251 0
-250 -251 0
247 250 251 0
c gate 252 58 162 0
58 -252 0
162 -252 0
-58 -162 252 0
c gate 253 57 161 0
57 -253 0
161 -253 0
-57 -161 253 0
c gate 254 -252 -253 0
-252 -254 0
-253 -254 0
252 253 254 0
c gate 255 -58 -162 0
-58 -255 0
-162 -255 0
58 162 255 0
c gate 256 -59 -163 0
-59 -256 0
-163 -256 0
59 163 256 0
c gate 257 -248 -256 0
-248 -257 0
-256 -257 0
248 256 257 0
c gate 258 -255 257 0
-255 -258 0
257 -258 0
255 -257 258 0
c gate 259 251 258 0
251 -259 0
258 -259 0
-251 -258 259 0
c gate 260 -254 259 0
-254 -260 0
259 -260 0
254 -259 260 0
c gate 261 251 -260 0
251 -261 0
-260 -261 0
-251 260 261 0
c gate 262 -62 -166 0
-62 -262 0
-166 -262 0
62 166 262 0
c gate 263 -63 -167 0
-63 -263 0
-167 -263 0
63 167 263 0
c gate 264 -262 -263 0
-262 -264 0
-263 -264 0
262 263 264 0
c gate 265 63 167 0
63 -265 0
167 -265 0
-63 -167 265 0
c gate 266 64 168 0
64 -266 0
168 -266 0
-64 -168 266 0
c gate 267 -265 -266 0
-265 -267 0
-266 -267 0
265 266 267 0
c gate 268 -64 -168 0
-64 -268 0
-168 -268 0
64 168 268 0
c gate 269 267 -268 0
267 -269 0
-268 -269 0
-267 268 269 0
c gate 270 264 269 0
264 -270 0
269 -270 0
-264 -269 270 0
c gate 271 61 165 0
61 -271 0
165 -271 0
-61 -165 271 0
c gate 272 62 166 0
62 -272 0
166 -272 0
-62 -166 272 0
c gate 273 -271 -272 0
-271 -273 0
-272 -273 0
271 272 273 0
c gate 274 -61 -165 0
-61 -274 0
-165 -274 0
61 165 274 0
c gate 275 273 -274 0
273 -275 0
-274 -275 0
-273 274 275 0
c gate 276 270 275 0
270 -276 0
275 -276 0
-270 -275 276 0
c gate 277 -261 276 0
-261 -277 0
276 -277 0
261 -276 277 0
c gate 278 264 -273 0
264 -278 0
-273 -278 0
-264 273 278 0
c gate 279 267 -278 0
267 -279 0
-278 -279 0
-267 278 279 0
c gate 280 -268 -279 0
-268 -280 0
-279 -280 0
268 279 280 0
c gate 281 -277 -280 0
-277 -281 0
-280 -281 0
277 280 281 0
c gate 282 -56 -160 0
-56 -282 0
-160 -282 0
56 160 282 0
c gate 283 56 160 0
56 -283 0
160 -283 0
-56 -160 283 0
c gate 284 55 159 0
55 -284 0
159 -284 0
-55 -159 284 0
c gate 285 -283 -284 0
-283 -285 0
-284 -285 0
283 284 285 0
c gate 286 -55 -159 0
-55 -286 0
-159 -286 0
55 159 286 0
c gate 287 -54 -158 0
-54 -287 0
-158 -287 0
54 158 287 0
c gate 288 -286 -287 0
-286 -288 0
-287 -288 0
286 287 288 0
c gate 289 54 158 0
54 -289 0
158 -289 0
-54 -158 289 0
c gate 290 53 157 0
53 -290 0
157 -290 0
-53 -157 290 0
c gate 291 -289 -290 0
-289 -291 0
-290 -291 0
289 290 291 0
c gate 292 -53 -157 0
-53 -292 0
-157 -292 0
53 157 292 0
c gate 293 49 153 0
49 -293 0
153 -293 0
-49 -153 293 0
c gate 294 50 154 0
50 -294 0
154 -294 0
-50 -154 294 0
c gate 295 -293 -294 0
-293 -295 0
-294 -295 0
293 294 295 0
c gate 296 -51 -155 0
-51 -296 0
-155 -296 0
51 155 296 0
c gate 297 -50 -154 0
-50 -297 0
-154 -297 0
50 154 297 0
c gate 298 -52 -156 0
-52 -298 0
-156 -298 0
52 156 298 0
c gate 299 -297 -298 0
-297 -299 0
-298 -299 0
297 298 299 0
c gate 300 -296 299 0
-296 -300 0
299 -300 0
296 -299 300 0
c gate 301 -295 300 0
-295 -301 0
300 -301 0
295 -300 301 0
c gate 302 52 156 0
52 -302 0
156 -302 0
-52 -156 302 0
c gate 303 51 155 0
51 -303 0
155 -303 0
-51 -155 303 0
c gate 304 -298 303 0
-298 -304 0
303 -304 0
298 -303 304 0
c gate 305 -302 -304 0
-302 -305 0
-304 -305 0
302 304 305 0
c gate 306 -301 305 0
-301 -306 0
305 -306 0
301 -305 306 0
c gate 307 -292 -306 0
-292 -307 0
-306 -307 0
292 306 307 0
c gate 308 291 -307 0
291 -308 0
-307 -308 0
-291 307 308 0
c gate 309 288 -308 0
288 -309 0
-308 -309 0
-288 308 309 0
c gate 310 285 -309 0
285 -310 0
-309 -310 0
-285 309 310 0
c gate 311 -282 -310 0
-282 -311 0
-310 -311 0
282 310 311 0
c gate 312 285 288 0
285 -312 0
288 -312 0
-285 -288 312 0
c gate 313 291 295 0
291 -313 0
295 -313 0
-291 -295 313 0
c gate 314 312 313 0
312 -314 0
313 -314 0
-312 -313 314 0
c gate 315 -49 -153 0
-49 -315 0
-153 -315 0
49 153 315 0
c gate 316 -282 -292 0
-282 -316 0
-292 -316 0
282 292 316 0
c gate 317 -315 316 0
-315 -317 0
316 -317 0
315 -316 317 0
c gate 318 300 317 0
300 -318 0
317 -318 0
-300 -317 318 0
c gate 319 305 318 0
305 -319 0
318 -319 0
-305 -318 319 0
c gate 320 314 319 0
314 -320 0
319 -320 0
-314 -319 320 0
c gate 321 -40 -144 0
-40 -321 0
-144 -321 0
40 144 321 0
c gate 322 38 142 0
38 -322 0
142 -322 0
-38 -142 322 0
c gate 323 37 141 0
37 -323 0
141 -323 0
-37 -141 323 0
c gate 324 -322 -323 0
-322 -324 0
-323 -324 0
322 323 324 0
c gate 325 -39 -143 0
-39 -325 0
-143 -325 0
39 143 325 0
c gate 326 -38 -142 0
-38 -326 0
-142 -326 0
38 142 326 0
c gate 327 -325 -326 0
-325 -327 0
-326 -327 0
325 326 327 0
c gate 328 -324 327 0
-324 -328 0
327 -328 0
324 -327 328 0
c gate 329 39 143 0
39 -329 0
143 -329 0
-39 -143 329 0
c gate 330 40 144 0
40 -330 0
144 -330 0
-40 -144 330 0
c gate 331 -329 -330 0
-329 -331 0
-330 -331 0
329 330 331 0
c gate 332 -328 331 0
-328 -332 0
331 -332 0
328 -331 332 0
c gate 333 -321 -332 0
-321 -333 0
-332 -333 0
321 332 333 0
c gate 334 -37 -141 0
-37 -334 0
-141 -334 0
37 141 334 0
c gate 335 -321 -334 0
-321 -335 0
-334 -335 0
321 334 335 0
c gate 336 327 335 0
327 -336 0
335 -336 0
-327 -335 336 0
c gate 337 332 336 0
332 -337 0
336 -337 0
-332 -336 337 0
c gate 338 36 140 0
36 -338 0
140 -338 0
-36 -140 338 0
c gate 339 -36 -140 0
-36 -339 0
-140 -339 0
36 140 339 0
c gate 340 35 139 0
35 -340 0
139 -340 0
-35 -139 340 0
c gate 341 -339 340 0
-339 -341 0
340 -341 0
339 -340 341 0
c gate 342 -338 -341 0
-338 -342 0
-341 -342 0
338 341 342 0
c gate 343 -35 -139 0
-35 -343 0
-139 -343 0
35 139 343 0
c gate 344 -339 -343 0
-339 -344 0
-343 -344 0
339 343 344 0
c gate 345 342 344 0
342 -345 0
344 -345 0
-342 -344 345 0
c gate 346 34 138 0
34 -346 0
138 -346 0
-34 -138 346 0
c gate 347 33 137 0
33 -347 0
137 -347 0
-33 -137 347 0
c gate 348 -346 -347 0
-346 -348 0
-347 -348 0
346 347 348 0
c gate 349 -34 -138 0
-34 -349 0
-138 -349 0
34 138 349 0
c gate 350 -348 -349 0
-348 -350 0
-349 -350 0
348 349 350 0
c gate 351 345 350 0
345 -351 0
350 -351 0
-345 -350 351 0
c gate 352 342 -351 0
342 -352 0
-351 -352 0
-342 351 352 0
c gate 353 337 -352 0
337 -353 0
-352 -353 0
-337 352 353 0
c gate 354 -333 -353 0
-333 -354 0
-353 -354 0
333 353 354 0
c gate 355 -33 -137 0
-33 -355 0
-137 -355 0
33 137 355 0
c gate 356 -349 -355 0
-349 -356 0
-355 -356 0
349 355 356 0
c gate 357 348 356 0
348 -357 0
356 -357 0
-348 -356 357 0
c gate 358 345 357 0
345 -358 0
357 -358 0
-345 -357 358 0
c gate 359 337 358 0
337 -359 0
358 -359 0
-337 -358 359 0
c gate 360 -32 -136 0
-32 -360 0
-136 -360 0
32 136 360 0
c gate 361 32 136 0
32 -361 0
136 -361 0
-32 -136 361 0
c gate 362 31 135 0
31 -362 0
135 -362 0
-31 -135 362 0
c gate 363 -361 -362 0
-361 -363 0
-362 -363 0
361 362 363 0
c gate 364 -31 -135 0
-31 -364 0
-135 -364 0
31 135 364 0
c gate 365 -30 -134 0
-30 -365 0
-134 -365 0
30 134 365 0
c gate 366 -364 -365 0
-364 -366 0
-365 -366 0
364 365 366 0
c gate 367 30 134 0
30 -367 0
134 -367 0
-30 -134 367 0
c gate 368 29 133 0
29 -368 0
133 -368 0
-29 -133 368 0
c gate 369 -367 -368 0
-367 -369 0
-368 -369 0
367 368 369 0
c gate 370 -29 -133 0
-29 -370 0
-133 -370 0
29 133 370 0
c gate 371 28 132 0
28 -371 0
132 -371 0
-28 -132 371 0
c gate 372 -28 -132 0
-28 -372 0
-132 -372 0
28 132 372 0
c gate 373 27 -372 0
27 -373 0
-372 -373 0
-27 372 373 0
c gate 374 131 373 0
131 -374 0
373 -374 0
-131 -373 374 0
c gate 375 -371 -374 0
-371 -375 0
-374 -375 0
371 374 375 0
c gate 376 131 -372 0
131 -376 0
-372 -376 0
-131 372 376 0
c gate 377 -373 -376 0
-373 -377 0
-376 -377 0
373 376 377 0
c gate 378 25 129 0
25 -378 0
129 -378 0
-25 -129 378 0
c gate 379 26 130 0
26 -379 0
130 -379 0
-26 -130 379 0
c gate 380 -378 -379 0
-378 -380 0
-379 -380 0
378 379 380 0
c gate 381 -26 -130 0
-26 -381 0
-130 -381 0
26 130 381 0
c gate 382 -380 -381 0
-380 -382 0
-381 -382 0
380 381 382 0
c gate 383 -377 382 0
-377 -383 0
382 -383 0
377 -382 383 0
c gate 384 375 -383 0
375 -384 0
-383 -384 0
-375 383 384 0
c gate 385 -370 -384 0
-370 -385 0
-384 -385 0
370 384 385 0
c gate 386 369 -385 0
369 -386 0
-385 -386 0
-369 385 386 0
c gate 387 366 -386 0
366 -387 0
-386 -387 0
-366 386 387 0
c gate 388 363 -387 0
363 -388 0
-387 -388 0
-363 387 388 0
c gate 389 -360 -388 0
-360 -389 0
-388 -389 0
360 388 389 0
c gate 390 363 380 0
363 -390 0
380 -390 0
-363 -380 390 0
c gate 391 366 369 0
366 -391 0
369 -391 0
-366 -369 391 0
c gate 392 390 391 0
390 -392 0
391 -392 0
-390 -391 392 0
c gate 393 -370 -381 0
-370 -393 0
-381 -393 0
370 381 393 0
c gate 394 -25 -129 0
-25 -394 0
-129 -394 0
25 129 394 0
c gate 395 -360 -394 0
-360 -395 0
-394 -395 0
360 394 395 0
c gate 396 393 395 0
393 -396 0
395 -396 0
-393 -395 396 0
c gate 397 -377 396 0
-377 -397 0
396 -397 0
377 -396 397 0
c gate 398 392 397 0
392 -398 0
397 -398 0
-392 -397 398 0
c gate 399 375 398 0
375 -399 0
398 -399 0
-375 -398 399 0
c gate 400 2 106 0
2 -400 0
106 -400 0
-2 -106 400 0
c gate 401 1 105 0
1 -401 0
105 -401 0
-1 -105 401 0
c gate 402 -400 -401 0
-400 -402 0
-401 -402 0
400 401 402 0
c gate 403 -3 -107 0
-3 -403 0
-107 -403 0
3 107 403 0
c gate 404 -2 -106 0
-2 -404 0
-106 -404 0
2 106 404 0
c gate 405 -403 -404 0
-403 -405 0
-404 -405 0
403 404 405 0
c gate 406 -402 405 0
-402 -406 0
405 -406 0
402 -405 406 0
c gate 407 4 108 0
4 -407 0
108 -407 0
-4 -108 407 0
c gate 408 3 107 0
3 -408 0
107 -408 0
-3 -107 408 0
c gate 409 -407 -408 0
-407 -409 0
-408 -409 0
407 408 409 0
c gate 410 -406 409 0
-406 -410 0
409 -410 0
406 -409 410 0
c gate 411 -4 -108 0
-4 -411 0
-108 -411 0
4 108 411 0
c gate 412 -5 -109 0
-5 -412 0
-109 -412 0
5 109 412 0
c gate 413 -411 -412 0
-411 -413 0
-412 -413 0
411 412 413 0
c gate 414 -410 413 0
-410 -414 0
413 -414 0
410 -413 414 0
c gate 415 6 110 0
6 -415 0
110 -415 0
-6 -110 415 0
c gate 416 5 109 0
5 -416 0
109 -416 0
-5 -109 416 0
c gate 417 -415 -416 0
-415 -417 0
-416 -417 0
415 416 417 0
c gate 418 -414 417 0
-414 -418 0
417 -418 0
414 -417 418 0
c gate 419 -7 -111 0
-7 -419 0
-111 -419 0
7 111 419 0
c gate 420 -6 -110 0
-6 -420 0
-110 -420 0
6 110 420 0
c gate 421 -419 -420 0
-419 -421 0
-420 -421 0
419 420 421 0
c gate 422 -418 421 0
-418 -422 0
421 -422 0
418 -421 422 0
c gate 423 8 112 0
8 -423 0
112 -423 0
-8 -112 423 0
c gate 424 7 111 0
7 -424 0
111 -424 0
-7 -111 424 0
c gate 425 -423 -424 0
-423 -425 0
-424 -425 0
423 424 425 0
c gate 426 -422 425 0
-422 -426 0
425 -426 0
422 -425 426 0
c gate 427 -9 -113 0
-9 -427 0
-113 -427 0
9 113 427 0
c gate 428 -8 -112 0
-8 -428 0
-112 -428 0
8 112 428 0
c gate 429 -427 -428 0
-427 -429 0
-428 -429 0
427 428 429 0
c gate 430 -426 429 0
-426 -430 0
429 -430 0
426 -429 430 0
c gate 431 10 114 0
10 -431 0
114 -431 0
-10 -114 431 0
c gate 432 9 113 0
9 -432 0
113 -432 0
-9 -113 432 0
c gate 433 -431 -432 0
-431 -433 0
-432 -433 0
431 432 433 0
c gate 434 -430 433 0
-430 -434 0
433 -434 0
430 -433 434 0
c gate 435 -10 -114 0
-10 -435 0
-114 -435 0
10 114 435 0
c gate 436 -12 -116 0
-12 -436 0
-116 -436 0
12 116 436 0
c gate 437 -11 -115 0
-11 -437 0
-115 -437 0
11 115 437 0
c gate 438 -436 -437 0
-436 -438 0
-437 -438 0
436 437 438 0
c gate 439 -435 438 0
-435 -439 0
438 -439 0
435 -438 439 0
c gate 440 -434 439 0
-434 -440 0
439 -440 0
434 -439 440 0
c gate 441 12 116 0
12 -441 0
116 -441 0
-12 -116 441 0
c gate 442 11 115 0
11 -442 0
115 -442 0
-11 -115 442 0
c gate 443 -436 442 0
-436 -443 0
442 -443 0
436 -442 443 0
c gate 444 -441 -443 0
-441 -444 0
-443 -444 0
441 443 444 0
c gate 445 -440 444 0
-440 -445 0
444 -445 0
440 -444 445 0
c gate 446 -14 -118 0
-14 -446 0
-118 -446 0
14 118 446 0
c gate 447 -15 -119 0
-15 -447 0
-119 -447 0
15 119 447 0
c gate 448 -446 -447 0
-446 -448 0
-447 -448 0
446 447 448 0
c gate 449 14 118 0
14 -449 0
118 -449 0
-14 -118 449 0
c gate 450 13 117 0
13 -450 0
117 -450 0
-13 -117 450 0
c gate 451 -449 -450 0
-449 -451 0
-450 -451 0
449 450 451 0
c gate 452 -13 -117 0
-13 -452 0
-117 -452 0
13 117 452 0
c gate 453 451 -452 0
451 -453 0
-452 -453 0
-451 452 453 0
c gate 454 448 453 0
448 -454 0
453 -454 0
-448 -453 454 0
c gate 455 -445 454 0
-445 -455 0
454 -455 0
445 -454 455 0
c gate 456 448 -451 0
448 -456 0
-451 -456 0
-448 451 456 0
c gate 457 15 119 0
15 -457 0
119 -457 0
-15 -119 457 0
c gate 458 16 120 0
16 -458 0
120 -458 0
-16 -120 458 0
c gate 459 -457 -458 0
-457 -459 0
-458 -459 0
457 458 459 0
c gate 460 -456 459 0
-456 -460 0
459 -460 0
456 -459 460 0
c gate 461 -455 460 0
-455 -461 0
460 -461 0
455 -460 461 0
c gate 462 -20 -124 0
-20 -462 0
-124 -462 0
20 124 462 0
c gate 463 19 -462 0
19 -463 0
-462 -463 0
-19 462 463 0
c gate 464 123 -462 0
123 -464 0
-462 -464 0
-123 462 464 0
c gate 465 -463 -464 0
-463 -465 0
-464 -465 0
463 464 465 0
c gate 466 -17 -121 0
-17 -466 0
-121 -466 0
17 121 466 0
c gate 467 -16 -120 0
-16 -467 0
-120 -467 0
16 120 467 0
c gate 468 -21 -125 0
-21 -468 0
-125 -468 0
21 125 468 0
c gate 469 -467 -468 0
-467 -469 0
-468 -469 0
467 468 469 0
c gate 470 -466 469 0
-466 -470 0
469 -470 0
466 -469 470 0
c gate 471 22 126 0
22 -471 0
126 -471 0
-22 -126 471 0
c gate 472 21 125 0
21 -472 0
125 -472 0
-21 -125 472 0
c gate 473 -471 -472 0
-471 -473 0
-472 -473 0
471 472 473 0
c gate 474 -24 -128 0
-24 -474 0
-128 -474 0
24 128 474 0
c gate 475 -18 -122 0
-18 -475 0
-122 -475 0
18 122 475 0
c gate 476 -474 -475 0
-474 -476 0
-475 -476 0
474 475 476 0
c gate 477 473 476 0
473 -477 0
476 -477 0
-473 -476 477 0
c gate 478 470 477 0
470 -478 0
477 -478 0
-470 -477 478 0
c gate 479 -465 478 0
-465 -479 0
478 -479 0
465 -478 479 0
c gate 480 20 124 0
20 -480 0
124 -480 0
-20 -124 480 0
c gate 481 123 463 0
123 -481 0
463 -481 0
-123 -463 481 0
c gate 482 -480 -481 0
-480 -482 0
-481 -482 0
480 481 482 0
c gate 483 17 121 0
17 -483 0
121 -483 0
-17 -121 483 0
c gate 484 18 122 0
18 -484 0
122 -484 0
-18 -122 484 0
c gate 485 -483 -484 0
-483 -485 0
-484 -485 0
483 484 485 0
c gate 486 -23 -127 0
-23 -486 0
-127 -486 0
23 127 486 0
c gate 487 -22 -126 0
-22 -487 0
-126 -487 0
22 126 487 0
c gate 488 -486 -487 0
-486 -488 0
-487 -488 0
486 487 488 0
c gate 489 24 128 0
24 -489 0
128 -489 0
-24 -128 489 0
c gate 490 23 127 0
23 -490 0
127 -490 0
-23 -127 490 0
c gate 491 -489 -490 0
-489 -491 0
-490 -491 0
489 490 491 0
c gate 492 488 491 0
488 -492 0
491 -492 0
-488 -491 492 0
c gate 493 485 492 0
485 -493 0
492 -493 0
-485 -492 493 0
c gate 494 482 493 0
482 -494 0
493 -494 0
-482 -493 494 0
c gate 495 479 494 0
479 -495 0
494 -495 0
-479 -494 495 0
c gate 496 -461 495 0
-461 -496 0
495 -496 0
461 -495 496 0
c gate 497 -475 -485 0
-475 -497 0
-485 -497 0
475 485 497 0
c gate 498 -465 497 0
-465 -498 0
497 -498 0
465 -497 498 0
c gate 499 482 -498 0
482 -499 0
-498 -499 0
-482 498 499 0
c gate 500 -468 -499 0
-468 -500 0
-499 -500 0
468 499 500 0
c gate 501 473 -500 0
473 -501 0
-500 -501 0
-473 500 501 0
c gate 502 488 -501 0
488 -502 0
-501 -502 0
-488 501 502 0
c gate 503 491 -502 0
491 -503 0
-502 -503 0
-491 502 503 0
c gate 504 -474 -503 0
-474 -504 0
-503 -504 0
474 503 504 0
c gate 505 -496 -504 0
-496 -505 0
-504 -505 0
496 504 505 0
c gate 506 399 -505 0
399 -506 0
-505 -506 0
-399 505 506 0
c gate 507 -389 -506 0
-389 -507 0
-506 -507 0
389 506 507 0
c gate 508 359 -507 0
359 -508 0
-507 -508 0
-359 507 508 0
c gate 509 354 -508 0
354 -509 0
-508 -509 0
-354 508 509 0
c gate 510 48 152 0
48 -510 0
152 -510 0
-48 -152 510 0
c gate 511 -48 -152 0
-48 -511 0
-152 -511 0
48 152 511 0
c gate 512 47 151 0
47 -512 0
151 -512 0
-47 -151 512 0
c gate 513 -511 512 0
-511 -513 0
512 -513 0
511 -512 513 0
c gate 514 -510 -513 0
-510 -514 0
-513 -514 0
510 513 514 0
c gate 515 -46 -150 0
-46 -515 0
-150 -515 0
46 150 515 0
c gate 516 -47 -151 0
-47 -516 0
-151 -516 0
47 151 516 0
c gate 517 -511 -516 0
-511 -517 0
-516 -517 0
511 516 517 0
c gate 518 -515 517 0
-515 -518 0
517 -518 0
515 -517 518 0
c gate 519 514 518 0
514 -519 0
518 -519 0
-514 -518 519 0
c gate 520 -45 -149 0
-45 -520 0
-149 -520 0
45 149 520 0
c gate 521 46 150 0
46 -521 0
150 -521 0
-46 -150 521 0
c gate 522 45 149 0
45 -522 0
149 -522 0
-45 -149 522 0
c gate 523 -521 -522 0
-521 -523 0
-522 -523 0
521 522 523 0
c gate 524 -520 523 0
-520 -524 0
523 -524 0
520 -523 524 0
c gate 525 519 524 0
519 -525 0
524 -525 0
-519 -524 525 0
c gate 526 44 148 0
44 -526 0
148 -526 0
-44 -148 526 0
c gate 527 -44 -148 0
-44 -527 0
-148 -527 0
44 148 527 0
c gate 528 43 147 0
43 -528 0
147 -528 0
-43 -147 528 0
c gate 529 -527 528 0
-527 -529 0
528 -529 0
527 -528 529 0
c gate 530 -526 -529 0
-526 -530 0
-529 -530 0
526 529 530 0
c gate 531 -42 -146 0
-42 -531 0
-146 -531 0
42 146 531 0
c gate 532 -43 -147 0
-43 -532 0
-147 -532 0
43 147 532 0
c gate 533 -527 -532 0
-527 -533 0
-532 -533 0
527 532 533 0
c gate 534 -531 533 0
-531 -534 0
533 -534 0
531 -533 534 0
c gate 535 530 534 0
530 -535 0
534 -535 0
-530 -534 535 0
c gate 536 -41 -145 0
-41 -536 0
-145 -536 0
41 145 536 0
c gate 537 42 146 0
42 -537 0
146 -537 0
-42 -146 537 0
c gate 538 41 145 0
41 -538 0
145 -538 0
-41 -145 538 0
c gate 539 -537 -538 0
-537 -539 0
-538 -539 0
537 538 539 0
c gate 540 -536 539 0
-536 -540 0
539 -540 0
536 -539 540 0
c gate 541 535 540 0
535 -541 0
540 -541 0
-535 -540 541 0
c gate 542 525 541 0
525 -542 0
541 -542 0
-525 -541 542 0
c gate 543 -509 542 0
-509 -543 0
542 -543 0
509 -542 543 0
c gate 544 535 -539 0
535 -544 0
-539 -544 0
-535 539 544 0
c gate 545 530 -544 0
530 -545 0
-544 -545 0
-530 544 545 0
c gate 546 525 -545 0
525 -546 0
-545 -546 0
-525 545 546 0
c gate 547 519 -523 0
519 -547 0
-523 -547 0
-519 523 547 0
c gate 548 514 -547 0
514 -548 0
-547 -548 0
-514 547 548 0
c gate 549 -546 548 0
-546 -549 0
548 -549 0
546 -548 549 0
c gate 550 -543 549 0
-543 -550 0
549 -550 0
543 -549 550 0
c gate 551 320 -550 0
320 -551 0
-550 -551 0
-320 550 551 0
c gate 552 -311 -551 0
-311 -552 0
-551 -552 0
311 551 552 0
c gate 553 -57 -161 0
-57 -553 0
-161 -553 0
57 161 553 0
c gate 554 254 -553 0
254 -554 0
-553 -554 0
-254 553 554 0
c gate 555 259 554 0
259 -555 0
554 -555 0
-259 -554 555 0
c gate 556 276 555 0
276 -556 0
555 -556 0
-276 -555 556 0
c gate 557 -552 556 0
-552 -557 0
556 -557 0
552 -556 557 0
c gate 558 281 -557 0
281 -558 0
-557 -558 0
-281 557 558 0
c gate 559 68 172 0
68 -559 0
172 -559 0
-68 -172 559 0
c gate 560 -68 -172 0
-68 -560 0
-172 -560 0
68 172 560 0
c gate 561 67 171 0
67 -561 0
171 -561 0
-67 -171 561 0
c gate 562 -560 561 0
-560 -562 0
561 -562 0
560 -561 562 0
c gate 563 -559 -562 0
-559 -563 0
-562 -563 0
559 562 563 0
c gate 564 -66 -170 0
-66 -564 0
-170 -564 0
66 170 564 0
c gate 565 -67 -171 0
-67 -565 0
-171 -565 0
67 171 565 0
c gate 566 -560 -565 0
-560 -566 0
-565 -566 0
560 565 566 0
c gate 567 -564 566 0
-564 -567 0
566 -567 0
564 -566 567 0
c gate 568 563 567 0
563 -568 0
567 -568 0
-563 -567 568 0
c gate 569 -65 -169 0
-65 -569 0
-169 -569 0
65 169 569 0
c gate 570 66 170 0
66 -570 0
170 -570 0
-66 -170 570 0
c gate 571 65 169 0
65 -571 0
169 -571 0
-65 -169 571 0
c gate 572 -570 -571 0
-570 -572 0
-571 -572 0
570 571 572 0
c gate 573 -569 572 0
-569 -573 0
572 -573 0
569 -572 573 0
c gate 574 568 573 0
568 -574 0
573 -574 0
-568 -573 574 0
c gate 575 72 176 0
72 -575 0
176 -575 0
-72 -176 575 0
c gate 576 71 175 0
71 -576 0
175 -576 0
-71 -175 576 0
c gate 577 -575 -576 0
-575 -577 0
-576 -577 0
575 576 577 0
c gate 578 -72 -176 0
-72 -578 0
-176 -578 0
72 176 578 0
c gate 579 -71 -175 0
-71 -579 0
-175 -579 0
71 175 579 0
c gate 580 -578 -579 0
-578 -580 0
-579 -580 0
578 579 580 0
c gate 581 577 580 0
577 -581 0
580 -581 0
-577 -580 581 0
c gate 582 69 173 0
69 -582 0
173 -582 0
-69 -173 582 0
c gate 583 70 174 0
70 -583 0
174 -583 0
-70 -174 583 0
c gate 584 -582 -583 0
-582 -584 0
-583 -584 0
582 583 584 0
c gate 585 -69 -173 0
-69 -585 0
-173 -585 0
69 173 585 0
c gate 586 -70 -174 0
-70 -586 0
-174 -586 0
70 174 586 0
c gate 587 -585 -586 0
-585 -587 0
-586 -587 0
585 586 587 0
c gate 588 584 587 0
584 -588 0
587 -588 0
-584 -587 588 0
c gate 589 581 588 0
581 -589 0
588 -589 0
-581 -588 589 0
c gate 590 574 589 0
574 -590 0
589 -590 0
-574 -589 590 0
c gate 591 -558 590 0
-558 -591 0
590 -591 0
558 -590 591 0
c gate 592 76 180 0
76 -592 0
180 -592 0
-76 -180 592 0
c gate 593 -76 -180 0
-76 -593 0
-180 -593 0
76 180 593 0
c gate 594 75 -593 0
75 -594 0
-593 -594 0
-75 593 594 0
c gate 595 179 594 0
179 -595 0
594 -595 0
-179 -594 595 0
c gate 596 -592 -595 0
-592 -596 0
-595 -596 0
592 595 596 0
c gate 597 73 177 0
73 -597 0
177 -597 0
-73 -177 597 0
c gate 598 74 178 0
74 -598 0
178 -598 0
-74 -178 598 0
c gate 599 -597 -598 0
-597 -599 0
-598 -599 0
597 598 599 0
c gate 600 80 184 0
80 -600 0
184 -600 0
-80 -184 600 0
c gate 601 79 183 0
79 -601 0
183 -601 0
-79 -183 601 0
c gate 602 -600 -601 0
-600 -602 0
-601 -602 0
600 601 602 0
c gate 603 599 602 0
599 -603 0
602 -603 0
-599 -602 603 0
c gate 604 -79 -183 0
-79 -604 0
-183 -604 0
79 183 604 0
c gate 605 -78 -182 0
-78 -605 0
-182 -605 0
78 182 605 0
c gate 606 -604 -605 0
-604 -606 0
-605 -606 0
604 605 606 0
c gate 607 78 182 0
78 -607 0
182 -607 0
-78 -182 607 0
c gate 608 77 181 0
77 -608 0
181 -608 0
-77 -181 608 0
c gate 609 -607 -608 0
-607 -609 0
-608 -609 0
607 608 609 0
c gate 610 606 609 0
606 -610 0
609 -610 0
-606 -609 610 0
c gate 611 603 610 0
603 -611 0
610 -611 0
-603 -610 611 0
c gate 612 179 -593 0
179 -612 0
-593 -612 0
-179 593 612 0
c gate 613 -594 -612 0
-594 -613 0
-612 -613 0
594 612 613 0
c gate 614 -77 -181 0
-77 -614 0
-181 -614 0
77 181 614 0
c gate 615 -74 -178 0
-74 -615 0
-178 -615 0
74 178 615 0
c gate 616 -614 -615 0
-614 -616 0
-615 -616 0
614 615 616 0
c gate 617 -80 -184 0
-80 -617 0
-184 -617 0
80 184 617 0
c gate 618 -73 -177 0
-73 -618 0
-177 -618 0
73 177 618 0
c gate 619 -617 -618 0
-617 -619 0
-618 -619 0
617 618 619 0
c gate 620 616 619 0
616 -620 0
619 -620 0
-616 -619 620 0
c gate 621 -613 620 0
-613 -621 0
620 -621 0
613 -620 621 0
c gate 622 611 621 0
611 -622 0
621 -622 0
-611 -621 622 0
c gate 623 596 622 0
596 -623 0
622 -623 0
-596 -622 623 0
c gate 624 591 623 0
591 -624 0
623 -624 0
-591 -623 624 0
c gate 625 568 -572 0
568 -625 0
-572 -625 0
-568 572 625 0
c gate 626 563 -625 0
563 -626 0
-625 -626 0
-563 625 626 0
c gate 627 589 -626 0
589 -627 0
-626 -627 0
-589 626 627 0
c gate 628 -577 -578 0
-577 -628 0
-578 -628 0
577 578 628 0
c gate 629 -584 -586 0
-584 -629 0
-586 -629 0
584 586 629 0
c gate 630 581 629 0
581 -630 0
629 -630 0
-581 -629 630 0
c gate 631 -628 -630 0
-628 -631 0
-630 -631 0
628 630 631 0
c gate 632 -627 631 0
-627 -632 0
631 -632 0
627 -631 632 0
c gate 633 623 -632 0
623 -633 0
-632 -633 0
-623 632 633 0
c gate 634 -599 -615 0
-599 -634 0
-615 -634 0
599 615 634 0
c gate 635 -613 634 0
-613 -635 0
634 -635 0
613 -634 635 0
c gate 636 596 -635 0
596 -636 0
-635 -636 0
-596 635 636 0
c gate 637 -614 -636 0
-614 -637 0
-636 -637 0
614 636 637 0
c gate 638 609 -637 0
609 -638 0
-637 -638 0
-609 637 638 0
c gate 639 606 -638 0
606 -639 0
-638 -639 0
-606 638 639 0
c gate 640 602 -639 0
602 -640 0
-639 -640 0
-602 639 640 0
c gate 641 -617 -640 0
-617 -641 0
-640 -641 0
617 640 641 0
c gate 642 -633 -641 0
-633 -642 0
-641 -642 0
633 641 642 0
c gate 643 -624 642 0
-624 -643 0
642 -643 0
624 -642 643 0
c gate 644 246 -643 0
246 -644 0
-643 -644 0
-246 643 644 0
c gate 645 -240 -644 0
-240 -645 0
-644 -645 0
240 644 645 0
c gate 646 92 196 0
92 -646 0
196 -646 0
-92 -196 646 0
c gate 647 -92 -196 0
-92 -647 0
-196 -647 0
92 196 647 0
c gate 648 91 195 0
91 -648 0
195 -648 0
-91 -195 648 0
c gate 649 -647 648 0
-647 -649 0
648 -649 0
647 -648 649 0
c gate 650 -646 -649 0
-646 -650 0
-649 -650 0
646 649 650 0
c gate 651 -90 -194 0
-90 -651 0
-194 -651 0
90 194 651 0
c gate 652 -91 -195 0
-91 -652 0
-195 -652 0
91 195 652 0
c gate 653 -647 -652 0
-647 -653 0
-652 -653 0
647 652 653 0
c gate 654 -651 653 0
-651 -654 0
653 -654 0
651 -653 654 0
c gate 655 650 654 0
650 -655 0
654 -655 0
-650 -654 655 0
c gate 656 90 194 0
90 -656 0
194 -656 0
-90 -194 656 0
c gate 657 89 193 0
89 -657 0
193 -657 0
-89 -193 657 0
c gate 658 -656 -657 0
-656 -658 0
-657 -658 0
656 657 658 0
c gate 659 -89 -193 0
-89 -659 0
-193 -659 0
89 193 659 0
c gate 660 658 -659 0
658 -660 0
-659 -660 0
-658 659 660 0
c gate 661 655 660 0
655 -661 0
660 -661 0
-655 -660 661 0
c gate 662 95 199 0
95 -662 0
199 -662 0
-95 -199 662 0
c gate 663 -94 -198 0
-94 -663 0
-198 -663 0
94 198 663 0
c gate 664 -95 -199 0
-95 -664 0
-199 -664 0
95 199 664 0
c gate 665 -663 -664 0
-663 -665 0
-664 -665 0
663 664 665 0
c gate 666 -662 665 0
-662 -666 0
665 -666 0
662 -665 666 0
c gate 667 94 198 0
94 -667 0
198 -667 0
-94 -198 667 0
c gate 668 93 197 0
93 -668 0
197 -668 0
-93 -197 668 0
c gate 669 -667 -668 0
-667 -669 0
-668 -669 0
667 668 669 0
c gate 670 96 200 0
96 -670 0
200 -670 0
-96 -200 670 0
c gate 671 -93 -197 0
-93 -671 0
-197 -671 0
93 197 671 0
c gate 672 -96 -200 0
-96 -672 0
-200 -672 0
96 200 672 0
c gate 673 -671 -672 0
-671 -673 0
-672 -673 0
671 672 673 0
c gate 674 -670 673 0
-670 -674 0
673 -674 0
670 -673 674 0
c gate 675 669 674 0
669 -675 0
674 -675 0
-669 -674 675 0
c gate 676 666 675 0
666 -676 0
675 -676 0
-666 -675 676 0
c gate 677 661 676 0
661 -677 0
676 -677 0
-661 -676 677 0
c gate 678 -645 677 0
-645 -678 0
677 -678 0
645 -677 678 0
c gate 679 655 -658 0
655 -679 0
-658 -679 0
-655 658 679 0
c gate 680 650 -679 0
650 -680 0
-679 -680 0
-650 679 680 0
c gate 681 676 -680 0
676 -681 0
-680 -681 0
-676 680 681 0
c gate 682 665 -669 0
665 -682 0
-669 -682 0
-665 669 682 0
c gate 683 -662 -682 0
-662 -683 0
-682 -683 0
662 682 683 0
c gate 684 -672 -683 0
-672 -684 0
-683 -684 0
672 683 684 0
c gate 685 -670 -684 0
-670 -685 0
-684 -685 0
670 684 685 0
c gate 686 -681 685 0
-681 -686 0
685 -686 0
681 -685 686 0
c gate 687 -678 686 0
-678 -687 0
686 -687 0
678 -686 687 0
c gate 688 102 206 0
102 -688 0
206 -688 0
-102 -206 688 0
c gate 689 -101 -205 0
-101 -689 0
-205 -689 0
101 205 689 0
c gate 690 -102 -206 0
-102 -690 0
-206 -690 0
102 206 690 0
c gate 691 -689 -690 0
-689 -691 0
-690 -691 0
689 690 691 0
c gate 692 -100 -204 0
-100 -692 0
-204 -692 0
100 204 692 0
c gate 693 99 203 0
99 -693 0
203 -693 0
-99 -203 693 0
c gate 694 -97 -201 0
-97 -694 0
-201 -694 0
97 201 694 0
c gate 695 -686 -694 0
-686 -695 0
-694 -695 0
686 694 695 0
c gate 696 97 201 0
97 -696 0
201 -696 0
-97 -201 696 0
c gate 697 98 202 0
98 -697 0
202 -697 0
-98 -202 697 0
c gate 698 -696 -697 0
-696 -698 0
-697 -698 0
696 697 698 0
c gate 699 -695 698 0
-695 -699 0
698 -699 0
695 -698 699 0
c gate 700 -98 -202 0
-98 -700 0
-202 -700 0
98 202 700 0
c gate 701 -99 -203 0
-99 -701 0
-203 -701 0
99 203 701 0
c gate 702 -700 -701 0
-700 -702 0
-701 -702 0
700 701 702 0
c gate 703 -699 702 0
-699 -703 0
702 -703 0
699 -702 703 0
c gate 704 -693 -703 0
-693 -704 0
-703 -704 0
693 703 704 0
c gate 705 -692 -704 0
-692 -705 0
-704 -705 0
692 704 705 0
c gate 706 101 205 0
101 -706 0
205 -706 0
-101 -205 706 0
c gate 707 100 204 0
100 -707 0
204 -707 0
-100 -204 707 0
c gate 708 -706 -707 0
-706 -708 0
-707 -708 0
706 707 708 0
c gate 709 -705 708 0
-705 -709 0
708 -709 0
705 -708 709 0
c gate 710 691 -709 0
691 -710 0
-709 -710 0
-691 709 710 0
c gate 711 -688 -710 0
-688 -711 0
-710 -711 0
688 710 711 0
c gate 712 698 702 0
698 -712 0
702 -712 0
-698 -702 712 0
c gate 713 103 -207 0
103 -713 0
-207 -713 0
-103 207 713 0
c gate 714 -103 207 0
-103 -714 0
207 -714 0
103 -207 714 0
c gate 715 -713 -714 0
-713 -715 0
-714 -715 0
713 714 715 0
c gate 716 708 -715 0
708 -716 0
-715 -716 0
-708 715 716 0
c gate 717 712 716 0
712 -717 0
716 -717 0
-712 -716 717 0
c gate 718 -693 -694 0
-693 -718 0
-694 -718 0
693 694 718 0
c gate 719 104 208 0
104 -719 0
208 -719 0
-104 -208 719 0
c gate 720 -104 -208 0
-104 -720 0
-208 -720 0
104 208 720 0
c gate 721 -719 -720 0
-719 -721 0
-720 -721 0
719 720 721 0
c gate 722 718 721 0
718 -722 0
721 -722 0
-718 -721 722 0
c gate 723 -688 -692 0
-688 -723 0
-692 -723 0
688 692 723 0
c gate 724 691 723 0
691 -724 0
723 -724 0
-691 -723 724 0
c gate 725 722 724 0
722 -725 0
724 -725 0
-722 -724 725 0
c gate 726 717 725 0
717 -726 0
725 -726 0
-717 -725 726 0
c gate 727 -711 726 0
-711 -727 0
726 -727 0
711 -726 727 0
c gate 728 -687 727 0
-687 -728 0
727 -728 0
687 -727 728 0
c PO
728 0
